c 1=W0_0 2=W0_1 3=W0_2 4=W0_3 5=x_0 6=x_1 7=x_2 8=x_3 9=y_0 10=y_1 11=y_2 12=y_3 
p cnf 12 29
1 2 3 4 0
-1 -2 0
-1 -3 0
-1 -4 0
-2 -3 0
-2 -4 0
-3 -4 0
5 6 7 8 0
-5 -6 0
-5 -7 0
-5 -8 0
-6 -7 0
-6 -8 0
-7 -8 0
-5 1 0
-6 2 0
-7 2 0
-8 2 0
9 10 11 12 0
-9 -10 0
-9 -11 0
-9 -12 0
-10 -11 0
-10 -12 0
-11 -12 0
-9 1 0
-10 1 0
-11 1 0
-12 2 0
